0 57784
1 57903
2 57951
3 58047
4 58085
5 58095
6 58102
7 58189
8 58264
9 58429
10 58487
11 58522
20 58522
30 58522
31 58711
40 58711
50 58711
60 58711
70 58711
80 58711
90 58711
100 58711
110 58711
120 58711
130 58711
140 58711
150 58711
160 58711
170 58711
180 58711
190 58711
200 58711
210 58711
220 58711
230 58711
240 58711
250 58711
260 58711
270 58711
280 58711
290 58711
300 58711
310 58711
320 58711
330 58711
